(set-logic HORN)
(declare-fun assign_234_38_5_abs012 (Int Int Int Int Int Int Int Int Int) Bool)
(declare-fun assign_225_37_5_abs012 (Int Int Int Int Int Int Int Int Int) Bool)
(declare-fun assert_191_32_2_abs012 (Int Int Int Int Int Int Int Int Int) Bool)
(declare-fun assert_213_35_2_abs012 (Int Int Int Int Int Int Int Int Int) Bool)
(declare-fun if_216_31_5_abs012 (Int Int Int Int Int Int Int Int Int) Bool)
(declare-fun while_237_30_1_abs012 (Int Int Int Int Int Int Int Int Int) Bool)
(declare-fun assign_157_29_1_abs012 (Int Int Int Int Int Int Int Int Int) Bool)
(declare-fun assign_151_28_1_abs012 (Int Int Int Int Int Int Int Int Int) Bool)
(declare-fun assign_145_26_1_abs012 (Int Int Int Int Int Int Int Int Int) Bool)
(declare-fun assign_127_23_5_abs012 (Int Int Int Int Int Int Int Int Int) Bool)
(declare-fun arrayassign_118_22_5_abs012 (Int Int Int Int Int Int Int Int Int) Bool)
(declare-fun while_130_21_1_abs012 (Int Int Int Int Int Int Int Int Int) Bool)
(declare-fun assign_96_20_1_abs012 (Int Int Int Int Int Int Int Int Int) Bool)
(declare-fun assign_87_17_5_abs012 (Int Int Int Int Int Int Int Int Int) Bool)
(declare-fun arrayassign_78_16_5_abs012 (Int Int Int Int Int Int Int Int Int) Bool)
(declare-fun while_90_15_1_abs012 (Int Int Int Int Int Int Int Int Int) Bool)
(declare-fun assign_56_14_1_abs012 (Int Int Int Int Int Int Int Int Int) Bool)
(declare-fun assign_50_12_1_abs012 (Int Int Int Int Int Int Int Int Int) Bool)
(declare-fun end_abs012 (Int Int Int Int Int Int Int Int Int) Bool)
(declare-fun start_abs012 (Int Int Int Int Int Int Int Int Int) Bool)
(assert (forall ((res (Array Int Int)) (b (Array Int Int)) (a (Array Int Int)) (modul Int) (size Int) (i Int) (vabs_f_f Int) (vabs_s_f_f Int) (vabs_s_s_f_f Int)) (start_abs012 vabs_f_f (select res vabs_f_f) vabs_s_f_f (select b vabs_s_f_f) vabs_s_s_f_f (select a vabs_s_s_f_f) modul size i)))
(assert (forall ((i Int) (size Int) (modul Int) (a (Array Int Int)) (b (Array Int Int)) (res (Array Int Int)) (vabs_0_f_f Int) (vabs_0_s_f_f Int) (vabs_0_s_s_f_f Int)) (=> (start_abs012 vabs_0_f_f (select res vabs_0_f_f) vabs_0_s_f_f (select b vabs_0_s_f_f) vabs_0_s_s_f_f (select a vabs_0_s_s_f_f) modul size i) (assign_50_12_1_abs012 vabs_0_f_f (select res vabs_0_f_f) vabs_0_s_f_f (select b vabs_0_s_f_f) vabs_0_s_s_f_f (select a vabs_0_s_s_f_f) modul size i))))
(assert (forall ((rnd Int) (i Int) (size Int) (modul Int) (a (Array Int Int)) (b (Array Int Int)) (res (Array Int Int)) (vabs_0_f_f Int) (vabs_0_s_f_f Int) (vabs_0_s_s_f_f Int)) (=> (assign_50_12_1_abs012 vabs_0_f_f (select res vabs_0_f_f) vabs_0_s_f_f (select b vabs_0_s_f_f) vabs_0_s_s_f_f (select a vabs_0_s_s_f_f) modul size i) (assign_56_14_1_abs012 vabs_0_f_f (select res vabs_0_f_f) vabs_0_s_f_f (select b vabs_0_s_f_f) vabs_0_s_s_f_f (select a vabs_0_s_s_f_f) modul rnd i))))
(assert (forall ((i Int) (size Int) (modul Int) (a (Array Int Int)) (b (Array Int Int)) (res (Array Int Int)) (vabs_0_f_f Int) (vabs_0_s_f_f Int) (vabs_0_s_s_f_f Int)) (=> (assign_56_14_1_abs012 vabs_0_f_f (select res vabs_0_f_f) vabs_0_s_f_f (select b vabs_0_s_f_f) vabs_0_s_s_f_f (select a vabs_0_s_s_f_f) modul size i) (while_90_15_1_abs012 vabs_0_f_f (select res vabs_0_f_f) vabs_0_s_f_f (select b vabs_0_s_f_f) vabs_0_s_s_f_f (select a vabs_0_s_s_f_f) modul size 0))))
(assert (forall ((res (Array Int Int)) (b (Array Int Int)) (a (Array Int Int)) (modul Int) (size Int) (i Int) (vabs_0_f_f Int) (vabs_0_s_f_f Int) (vabs_0_s_s_f_f Int)) (=> (and (while_90_15_1_abs012 vabs_0_f_f (select res vabs_0_f_f) vabs_0_s_f_f (select b vabs_0_s_f_f) vabs_0_s_s_f_f (select a vabs_0_s_s_f_f) modul size i) (< i size)) (arrayassign_78_16_5_abs012 vabs_0_f_f (select res vabs_0_f_f) vabs_0_s_f_f (select b vabs_0_s_f_f) vabs_0_s_s_f_f (select a vabs_0_s_s_f_f) modul size i))))
(assert (forall ((res (Array Int Int)) (b (Array Int Int)) (a (Array Int Int)) (modul Int) (size Int) (i Int) (vabs_0_f_f Int) (vabs_0_s_f_f Int) (vabs_0_s_s_f_f Int)) (=> (and (while_90_15_1_abs012 vabs_0_f_f (select res vabs_0_f_f) vabs_0_s_f_f (select b vabs_0_s_f_f) vabs_0_s_s_f_f (select a vabs_0_s_s_f_f) modul size i) (not (< i size))) (assign_96_20_1_abs012 vabs_0_f_f (select res vabs_0_f_f) vabs_0_s_f_f (select b vabs_0_s_f_f) vabs_0_s_s_f_f (select a vabs_0_s_s_f_f) modul size i))))
(assert (forall ((i Int) (size Int) (modul Int) (a (Array Int Int)) (b (Array Int Int)) (res (Array Int Int)) (vabs_0_f_f Int) (vabs_0_s_f_f Int) (vabs_0_s_s_f_f Int)) (=> (and (arrayassign_78_16_5_abs012 vabs_0_f_f (select res vabs_0_f_f) vabs_0_s_f_f (select b vabs_0_s_f_f) vabs_0_s_s_f_f (select a vabs_0_s_s_f_f) modul size i) (arrayassign_78_16_5_abs012 vabs_0_f_f (select res vabs_0_f_f) vabs_0_s_f_f (select b vabs_0_s_f_f) i (select a i) modul size i)) (assign_87_17_5_abs012 vabs_0_f_f (select (store res i (select a i)) vabs_0_f_f) vabs_0_s_f_f (select b vabs_0_s_f_f) vabs_0_s_s_f_f (select a vabs_0_s_s_f_f) modul size i))))
(assert (forall ((i Int) (size Int) (modul Int) (a (Array Int Int)) (b (Array Int Int)) (res (Array Int Int)) (vabs_0_f_f Int) (vabs_0_s_f_f Int) (vabs_0_s_s_f_f Int)) (=> (assign_87_17_5_abs012 vabs_0_f_f (select res vabs_0_f_f) vabs_0_s_f_f (select b vabs_0_s_f_f) vabs_0_s_s_f_f (select a vabs_0_s_s_f_f) modul size i) (while_90_15_1_abs012 vabs_0_f_f (select res vabs_0_f_f) vabs_0_s_f_f (select b vabs_0_s_f_f) vabs_0_s_s_f_f (select a vabs_0_s_s_f_f) modul size (+ i 2)))))
(assert (forall ((i Int) (size Int) (modul Int) (a (Array Int Int)) (b (Array Int Int)) (res (Array Int Int)) (vabs_0_f_f Int) (vabs_0_s_f_f Int) (vabs_0_s_s_f_f Int)) (=> (assign_96_20_1_abs012 vabs_0_f_f (select res vabs_0_f_f) vabs_0_s_f_f (select b vabs_0_s_f_f) vabs_0_s_s_f_f (select a vabs_0_s_s_f_f) modul size i) (while_130_21_1_abs012 vabs_0_f_f (select res vabs_0_f_f) vabs_0_s_f_f (select b vabs_0_s_f_f) vabs_0_s_s_f_f (select a vabs_0_s_s_f_f) modul size 1))))
(assert (forall ((res (Array Int Int)) (b (Array Int Int)) (a (Array Int Int)) (modul Int) (size Int) (i Int) (vabs_0_f_f Int) (vabs_0_s_f_f Int) (vabs_0_s_s_f_f Int)) (=> (and (while_130_21_1_abs012 vabs_0_f_f (select res vabs_0_f_f) vabs_0_s_f_f (select b vabs_0_s_f_f) vabs_0_s_s_f_f (select a vabs_0_s_s_f_f) modul size i) (< i size)) (arrayassign_118_22_5_abs012 vabs_0_f_f (select res vabs_0_f_f) vabs_0_s_f_f (select b vabs_0_s_f_f) vabs_0_s_s_f_f (select a vabs_0_s_s_f_f) modul size i))))
(assert (forall ((res (Array Int Int)) (b (Array Int Int)) (a (Array Int Int)) (modul Int) (size Int) (i Int) (vabs_0_f_f Int) (vabs_0_s_f_f Int) (vabs_0_s_s_f_f Int)) (=> (and (while_130_21_1_abs012 vabs_0_f_f (select res vabs_0_f_f) vabs_0_s_f_f (select b vabs_0_s_f_f) vabs_0_s_s_f_f (select a vabs_0_s_s_f_f) modul size i) (not (< i size))) (assign_145_26_1_abs012 vabs_0_f_f (select res vabs_0_f_f) vabs_0_s_f_f (select b vabs_0_s_f_f) vabs_0_s_s_f_f (select a vabs_0_s_s_f_f) modul size i))))
(assert (forall ((i Int) (size Int) (modul Int) (a (Array Int Int)) (b (Array Int Int)) (res (Array Int Int)) (vabs_0_f_f Int) (vabs_0_s_f_f Int) (vabs_0_s_s_f_f Int)) (=> (and (arrayassign_118_22_5_abs012 vabs_0_f_f (select res vabs_0_f_f) vabs_0_s_f_f (select b vabs_0_s_f_f) vabs_0_s_s_f_f (select a vabs_0_s_s_f_f) modul size i) (arrayassign_118_22_5_abs012 vabs_0_f_f (select res vabs_0_f_f) i (select b i) vabs_0_s_s_f_f (select a vabs_0_s_s_f_f) modul size i)) (assign_127_23_5_abs012 vabs_0_f_f (select (store res i (select b i)) vabs_0_f_f) vabs_0_s_f_f (select b vabs_0_s_f_f) vabs_0_s_s_f_f (select a vabs_0_s_s_f_f) modul size i))))
(assert (forall ((i Int) (size Int) (modul Int) (a (Array Int Int)) (b (Array Int Int)) (res (Array Int Int)) (vabs_0_f_f Int) (vabs_0_s_f_f Int) (vabs_0_s_s_f_f Int)) (=> (assign_127_23_5_abs012 vabs_0_f_f (select res vabs_0_f_f) vabs_0_s_f_f (select b vabs_0_s_f_f) vabs_0_s_s_f_f (select a vabs_0_s_s_f_f) modul size i) (while_130_21_1_abs012 vabs_0_f_f (select res vabs_0_f_f) vabs_0_s_f_f (select b vabs_0_s_f_f) vabs_0_s_s_f_f (select a vabs_0_s_s_f_f) modul size (+ i 2)))))
(assert (forall ((rnd Int) (res (Array Int Int)) (b (Array Int Int)) (a (Array Int Int)) (modul Int) (size Int) (i Int) (vabs_0_f_f Int) (vabs_0_s_f_f Int) (vabs_0_s_s_f_f Int)) (=> (and (assign_145_26_1_abs012 vabs_0_f_f (select res vabs_0_f_f) vabs_0_s_f_f (select b vabs_0_s_f_f) vabs_0_s_s_f_f (select a vabs_0_s_s_f_f) modul size i) (>= rnd 0) (< rnd size)) (assign_151_28_1_abs012 vabs_0_f_f (select res vabs_0_f_f) vabs_0_s_f_f (select b vabs_0_s_f_f) vabs_0_s_s_f_f (select a vabs_0_s_s_f_f) modul size i))))
(assert (forall ((i Int) (size Int) (modul Int) (a (Array Int Int)) (b (Array Int Int)) (res (Array Int Int)) (vabs_0_f_f Int) (vabs_0_s_f_f Int) (vabs_0_s_s_f_f Int)) (=> (assign_151_28_1_abs012 vabs_0_f_f (select res vabs_0_f_f) vabs_0_s_f_f (select b vabs_0_s_f_f) vabs_0_s_s_f_f (select a vabs_0_s_s_f_f) modul size i) (assign_157_29_1_abs012 vabs_0_f_f (select res vabs_0_f_f) vabs_0_s_f_f (select b vabs_0_s_f_f) vabs_0_s_s_f_f (select a vabs_0_s_s_f_f) modul size 0))))
(assert (forall ((i Int) (size Int) (modul Int) (a (Array Int Int)) (b (Array Int Int)) (res (Array Int Int)) (vabs_0_f_f Int) (vabs_0_s_f_f Int) (vabs_0_s_s_f_f Int)) (=> (assign_157_29_1_abs012 vabs_0_f_f (select res vabs_0_f_f) vabs_0_s_f_f (select b vabs_0_s_f_f) vabs_0_s_s_f_f (select a vabs_0_s_s_f_f) modul size i) (while_237_30_1_abs012 vabs_0_f_f (select res vabs_0_f_f) vabs_0_s_f_f (select b vabs_0_s_f_f) vabs_0_s_s_f_f (select a vabs_0_s_s_f_f) 1 size i))))
(assert (forall ((res (Array Int Int)) (b (Array Int Int)) (a (Array Int Int)) (modul Int) (size Int) (i Int) (vabs_0_f_f Int) (vabs_0_s_f_f Int) (vabs_0_s_s_f_f Int)) (=> (and (while_237_30_1_abs012 vabs_0_f_f (select res vabs_0_f_f) vabs_0_s_f_f (select b vabs_0_s_f_f) vabs_0_s_s_f_f (select a vabs_0_s_s_f_f) modul size i) (< i size)) (if_216_31_5_abs012 vabs_0_f_f (select res vabs_0_f_f) vabs_0_s_f_f (select b vabs_0_s_f_f) vabs_0_s_s_f_f (select a vabs_0_s_s_f_f) modul size i))))
(assert (forall ((res (Array Int Int)) (b (Array Int Int)) (a (Array Int Int)) (modul Int) (size Int) (i Int) (vabs_0_f_f Int) (vabs_0_s_f_f Int) (vabs_0_s_s_f_f Int)) (=> (and (while_237_30_1_abs012 vabs_0_f_f (select res vabs_0_f_f) vabs_0_s_f_f (select b vabs_0_s_f_f) vabs_0_s_s_f_f (select a vabs_0_s_s_f_f) modul size i) (not (< i size))) (end_abs012 vabs_0_f_f (select res vabs_0_f_f) vabs_0_s_f_f (select b vabs_0_s_f_f) vabs_0_s_s_f_f (select a vabs_0_s_s_f_f) modul size i))))
(assert (forall ((res (Array Int Int)) (b (Array Int Int)) (a (Array Int Int)) (modul Int) (size Int) (i Int) (vabs_0_f_f Int) (vabs_0_s_f_f Int) (vabs_0_s_s_f_f Int)) (=> (and (if_216_31_5_abs012 vabs_0_f_f (select res vabs_0_f_f) vabs_0_s_f_f (select b vabs_0_s_f_f) vabs_0_s_s_f_f (select a vabs_0_s_s_f_f) modul size i) (= modul 0)) (assert_191_32_2_abs012 vabs_0_f_f (select res vabs_0_f_f) vabs_0_s_f_f (select b vabs_0_s_f_f) vabs_0_s_s_f_f (select a vabs_0_s_s_f_f) modul size i))))
(assert (forall ((res (Array Int Int)) (b (Array Int Int)) (a (Array Int Int)) (modul Int) (size Int) (i Int) (vabs_0_f_f Int) (vabs_0_s_f_f Int) (vabs_0_s_s_f_f Int)) (=> (and (if_216_31_5_abs012 vabs_0_f_f (select res vabs_0_f_f) vabs_0_s_f_f (select b vabs_0_s_f_f) vabs_0_s_s_f_f (select a vabs_0_s_s_f_f) modul size i) (not (= modul 0))) (assert_213_35_2_abs012 vabs_0_f_f (select res vabs_0_f_f) vabs_0_s_f_f (select b vabs_0_s_f_f) vabs_0_s_s_f_f (select a vabs_0_s_s_f_f) modul size i))))
(assert (forall ((i Int) (size Int) (modul Int) (a (Array Int Int)) (b (Array Int Int)) (res (Array Int Int))) (=> (assert_191_32_2_abs012 i (select res i) 0 (select b 0) i (select a i) modul size i) (= (select res i) (select a i)))))
(assert (forall ((i Int) (size Int) (modul Int) (a (Array Int Int)) (b (Array Int Int)) (res (Array Int Int)) (vabs_0_f_f Int) (vabs_0_s_f_f Int) (vabs_0_s_s_f_f Int)) (=> (assert_191_32_2_abs012 vabs_0_f_f (select res vabs_0_f_f) vabs_0_s_f_f (select b vabs_0_s_f_f) vabs_0_s_s_f_f (select a vabs_0_s_s_f_f) modul size i) (assign_225_37_5_abs012 vabs_0_f_f (select res vabs_0_f_f) vabs_0_s_f_f (select b vabs_0_s_f_f) vabs_0_s_s_f_f (select a vabs_0_s_s_f_f) modul size i))))
(assert (forall ((i Int) (size Int) (modul Int) (a (Array Int Int)) (b (Array Int Int)) (res (Array Int Int))) (=> (assert_213_35_2_abs012 i (select res i) i (select b i) 0 (select a 0) modul size i) (= (select res i) (select b i)))))
(assert (forall ((i Int) (size Int) (modul Int) (a (Array Int Int)) (b (Array Int Int)) (res (Array Int Int)) (vabs_0_f_f Int) (vabs_0_s_f_f Int) (vabs_0_s_s_f_f Int)) (=> (assert_213_35_2_abs012 vabs_0_f_f (select res vabs_0_f_f) vabs_0_s_f_f (select b vabs_0_s_f_f) vabs_0_s_s_f_f (select a vabs_0_s_s_f_f) modul size i) (assign_225_37_5_abs012 vabs_0_f_f (select res vabs_0_f_f) vabs_0_s_f_f (select b vabs_0_s_f_f) vabs_0_s_s_f_f (select a vabs_0_s_s_f_f) modul size i))))
(assert (forall ((i Int) (size Int) (modul Int) (a (Array Int Int)) (b (Array Int Int)) (res (Array Int Int)) (vabs_0_f_f Int) (vabs_0_s_f_f Int) (vabs_0_s_s_f_f Int)) (=> (assign_225_37_5_abs012 vabs_0_f_f (select res vabs_0_f_f) vabs_0_s_f_f (select b vabs_0_s_f_f) vabs_0_s_s_f_f (select a vabs_0_s_s_f_f) modul size i) (assign_234_38_5_abs012 vabs_0_f_f (select res vabs_0_f_f) vabs_0_s_f_f (select b vabs_0_s_f_f) vabs_0_s_s_f_f (select a vabs_0_s_s_f_f) (- 1 modul) size i))))
(assert (forall ((i Int) (size Int) (modul Int) (a (Array Int Int)) (b (Array Int Int)) (res (Array Int Int)) (vabs_0_f_f Int) (vabs_0_s_f_f Int) (vabs_0_s_s_f_f Int)) (=> (assign_234_38_5_abs012 vabs_0_f_f (select res vabs_0_f_f) vabs_0_s_f_f (select b vabs_0_s_f_f) vabs_0_s_s_f_f (select a vabs_0_s_s_f_f) modul size i) (while_237_30_1_abs012 vabs_0_f_f (select res vabs_0_f_f) vabs_0_s_f_f (select b vabs_0_s_f_f) vabs_0_s_s_f_f (select a vabs_0_s_s_f_f) modul size (+ i 1)))))
(check-sat)